(declare-fun bvlambda_69_ ()Bool         )
(declare-fun bvlambda_71_ ()Bool         )
(declare-fun bvlambda_72_ () (_ BitVec 9))
(declare-fun a220 () (Array (_ BitVec 1) (_ BitVec 12)))
(assert
(let (($e37 (_ bv0 11)))
(let (($e38 (_ bv0 2)))
(let (($e266                             #b1     ))
(let (($e267        $e266       ))
(let (($e268        $e267       ))
(let (($e269        $e268       ))
(let (($e270        $e269       ))
(let (($e271        $e270       ))
(let (($e272        $e271       ))
(let (($e273        $e272       ))
(let (($e309 (concat $e37        $e273 )))
(let (($e310                    $e309       ))
(let (($e311         $e310       ))
(let (($e314 (concat        $e38  bvlambda_71_)))
(let (($e315 (concat $e314 bvlambda_72_)))
(let (($e316                           $e315       ))
(let (($e317 (store a220 true        $e316)))
(let (($e318 (store $e317 bvlambda_69_ $e311)))
(
                 extract(select $e318 true)
                                                                                                                                                                                                                                                                                                                                                                                                                                                                                                                                                                                                                                                                                                                                                                                                                                                                                                                                                                                                                                                                                                                                                                                                                                                                                                                                                                                                                                                                                                                                                                                                                                                                                                                                                                                                                                                                                                                                                                                                                                                                                                                                                                                                                                                                                                                                                                                                                                                                                                                                                                                                                                                                                                                                                                                                                                                                                                                                                                                                                                                                   )                                                                                                                                                                                                                                                                              )))))  )))                                   ))))))))                                                                                                                    ))                                    )
